p cnf 9 35
c Factors encoded in variables 1-5 and 6-9
c Target number: 128
4 -2 1 -8 0
-4 3 -7 6 0
-4 3 2 -9 -6 0
-2 1 -8 0
4 -2 -1 -9 -8 -7 0
-5 9 0
-4 3 -9 8 0
7 8 9 0
-3 2 -6 0
-4 -3 -8 -7 0
-4 3 -9 -7 -6 0
-3 2 -7 6 0
-3 2 -8 7 6 0
-2 -6  0
4 3 -7 0
-2 1 -7 0
-2 -9 -7 -6 0
-1 -9 8 0
-1 -7 0
-2 1 -9 8 0
-4 1 8 -7 6 0
-3 2 -9 8 7 0
-4 7 -6 0
-4 3 2 -8 7 0
-4 0
5 0
5 4 0
-5 3 -9 -8 7 0
-5 7 -6 0
2 3 4 5 0
-5 4 3 2 -7 0
-1 -6 0
-1 -8 7 0
-5 4 -8 7 0
-5 -4 -3 -9 -8 7 0
-5 9 8 0
-5 -3 8 -7 0
